nN = 10;
nR = 50;
nH = 2;

a = [[11, 25, 12, 25, 16, 16, 25, 23, 20, 18, 10, 23, 24, 18, 25, 13, 21, 24, 14, 22, 23, 21, 12, 22, 15, 14, 14, 21, 15, 12, 11, 12, 17, 25, 12, 18, 18, 11, 16, 22, 18, 17, 22, 24, 12, 16, 22, 13, 18, 12], [17, 20, 24, 23, 16, 21, 14, 24, 12, 20, 22, 14, 23, 12, 23, 25, 11, 11, 13, 10, 23, 24, 15, 17, 16, 14, 21, 19, 18, 10, 11, 24, 21, 24, 12, 20, 14, 15, 15, 21, 12, 22, 18, 15, 10, 10, 22, 11, 16, 19], [12, 14, 23, 15, 20, 22, 21, 12, 13, 19, 20, 24, 12, 11, 23, 20, 17, 14, 25, 24, 18, 15, 14, 21, 12, 20, 13, 24, 13, 12, 20, 23, 12, 14, 23, 24, 21, 16, 10, 24, 14, 21, 19, 19, 19, 22, 24, 20, 14, 22], [13, 22, 11, 16, 25, 18, 24, 10, 15, 19, 19, 20, 25, 20, 23, 20, 20, 16, 16, 14, 21, 22, 12, 19, 13, 11, 24, 22, 19, 22, 21, 23, 21, 19, 21, 11, 23, 12, 14, 14, 20, 25, 20, 20, 12, 11, 19, 24, 13, 16], [18, 22, 18, 15, 21, 12, 22, 15, 24, 14, 21, 25, 16, 11, 17, 15, 11, 11, 17, 14, 15, 21, 22, 17, 17, 23, 20, 14, 24, 23, 16, 18, 24, 24, 18, 23, 22, 16, 23, 18, 24, 21, 19, 24, 20, 13, 16, 20, 20, 18], [14, 14, 15, 20, 12, 21, 12, 17, 13, 24, 11, 19, 15, 21, 22, 22, 11, 12, 14, 21, 25, 14, 21, 12, 15, 24, 12, 23, 22, 18, 11, 12, 25, 16, 11, 22, 23, 13, 11, 14, 13, 12, 21, 25, 24, 19, 16, 24, 24, 22], [13, 11, 19, 21, 12, 13, 10, 15, 25, 14, 17, 23, 10, 25, 14, 10, 12, 25, 22, 12, 19, 24, 20, 23, 11, 23, 17, 21, 11, 15, 25, 16, 14, 11, 15, 18, 12, 19, 18, 18, 17, 17, 21, 17, 11, 22, 15, 15, 13, 16], [24, 22, 18, 23, 13, 14, 14, 11, 15, 14, 21, 14, 17, 12, 19, 15, 17, 16, 22, 21, 11, 17, 23, 15, 19, 17, 24, 23, 25, 21, 20, 18, 20, 11, 11, 13, 21, 18, 11, 15, 16, 23, 10, 16, 11, 16, 15, 25, 19, 16], [15, 17, 11, 18, 23, 10, 16, 16, 23, 12, 20, 21, 25, 23, 16, 12, 10, 23, 22, 22, 17, 23, 21, 11, 12, 22, 21, 13, 14, 19, 20, 15, 17, 16, 18, 14, 16, 20, 14, 21, 12, 14, 19, 15, 16, 12, 17, 12, 20, 25], [15, 24, 11, 21, 22, 21, 16, 13, 16, 22, 11, 24, 23, 21, 25, 15, 11, 19, 24, 15, 13, 16, 21, 18, 12, 17, 18, 12, 24, 21, 24, 13, 23, 22, 21, 20, 13, 12, 23, 14, 18, 23, 15, 13, 13, 12, 12, 20, 11, 11]];
c = [[[0, 0, 0, 0, 0, 0, 0, 0, 0, 0, 0, 0, 0, 0, 0, 0, 0, 0, 0, 0, 0, 0, 0, 0, 0, 0, 0, 0, 0, 0, 0, 0, 0, 0, 0, 0, 0, 0, 0, 0, 0, 0, 0, 0, 0, 0, 0, 0, 0, 0], [39, 43, 38, 31, 32, 36, 31, 43, 43, 34, 41, 46, 49, 40, 33, 42, 50, 43, 37, 45, 34, 38, 34, 36, 50, 44, 43, 36, 34, 43, 32, 38, 40, 39, 42, 42, 44, 35, 34, 42, 36, 44, 46, 39, 40, 36, 41, 50, 42, 33], [33, 40, 36, 43, 48, 32, 39, 41, 39, 30, 40, 48, 33, 41, 47, 48, 42, 31, 38, 43, 44, 31, 37, 46, 47, 30, 39, 48, 49, 50, 50, 46, 40, 39, 47, 38, 31, 30, 44, 37, 42, 45, 40, 39, 32, 42, 42, 34, 32, 50], [32, 49, 44, 46, 46, 46, 30, 42, 34, 36, 42, 40, 32, 37, 39, 48, 33, 47, 37, 48, 44, 41, 30, 45, 34, 31, 33, 50, 48, 50, 46, 48, 33, 45, 32, 38, 48, 47, 43, 43, 34, 36, 41, 35, 41, 43, 46, 48, 44, 49], [33, 33, 40, 34, 45, 50, 50, 47, 34, 32, 35, 43, 49, 48, 30, 43, 45, 31, 42, 46, 48, 49, 43, 44, 37, 50, 36, 37, 31, 45, 49, 40, 39, 42, 32, 47, 44, 33, 42, 34, 37, 39, 47, 34, 46, 43, 35, 30, 42, 38], [50, 41, 43, 47, 31, 35, 35, 34, 40, 39, 48, 32, 38, 42, 46, 43, 50, 37, 34, 30, 44, 40, 31, 40, 35, 41, 33, 39, 47, 32, 49, 46, 40, 43, 34, 44, 49, 45, 40, 35, 47, 45, 48, 42, 47, 44, 47, 33, 48, 45], [36, 40, 41, 37, 37, 46, 30, 31, 43, 42, 41, 32, 39, 49, 47, 39, 39, 31, 46, 44, 47, 44, 40, 50, 38, 38, 34, 32, 41, 40, 44, 36, 45, 47, 43, 47, 40, 31, 45, 41, 41, 41, 40, 40, 34, 31, 50, 47, 44, 36], [41, 44, 35, 41, 38, 40, 39, 31, 35, 36, 35, 38, 42, 38, 47, 46, 32, 47, 37, 30, 43, 43, 37, 49, 30, 42, 30, 44, 31, 39, 34, 48, 32, 48, 44, 31, 35, 44, 40, 50, 35, 49, 31, 35, 46, 34, 36, 43, 30, 37], [47, 37, 37, 35, 39, 34, 47, 47, 48, 39, 37, 47, 49, 45, 42, 47, 33, 46, 47, 39, 45, 44, 45, 30, 39, 50, 36, 47, 39, 46, 45, 42, 30, 46, 32, 48, 46, 40, 41, 43, 34, 31, 48, 50, 46, 35, 47, 40, 49, 49], [49, 40, 34, 31, 34, 33, 35, 44, 34, 46, 49, 44, 35, 42, 41, 44, 48, 46, 35, 38, 36, 47, 34, 46, 49, 41, 46, 32, 37, 34, 37, 48, 40, 33, 36, 46, 49, 32, 49, 34, 33, 38, 38, 47, 31, 47, 47, 42, 45, 35]], [[0, 0, 0, 0, 0, 0, 0, 0, 0, 0, 0, 0, 0, 0, 0, 0, 0, 0, 0, 0, 0, 0, 0, 0, 0, 0, 0, 0, 0, 0, 0, 0, 0, 0, 0, 0, 0, 0, 0, 0, 0, 0, 0, 0, 0, 0, 0, 0, 0, 0], [0, 0, 0, 0, 0, 0, 0, 0, 0, 0, 0, 0, 0, 0, 0, 0, 0, 0, 0, 0, 0, 0, 0, 0, 0, 0, 0, 0, 0, 0, 0, 0, 0, 0, 0, 0, 0, 0, 0, 0, 0, 0, 0, 0, 0, 0, 0, 0, 0, 0], [34, 50, 35, 50, 50, 31, 36, 33, 43, 41, 43, 50, 47, 49, 44, 47, 38, 42, 45, 48, 37, 47, 31, 35, 44, 32, 37, 40, 40, 50, 37, 37, 48, 36, 37, 40, 38, 39, 30, 40, 38, 35, 35, 30, 42, 33, 38, 31, 47, 40], [36, 39, 33, 40, 47, 47, 35, 30, 38, 31, 41, 40, 47, 42, 30, 45, 44, 42, 45, 42, 37, 46, 32, 45, 30, 47, 33, 50, 41, 42, 43, 39, 30, 40, 37, 46, 43, 33, 46, 37, 48, 50, 31, 45, 48, 47, 35, 30, 45, 43], [48, 48, 49, 30, 47, 30, 47, 43, 41, 43, 40, 50, 42, 31, 39, 50, 35, 45, 41, 43, 40, 37, 39, 47, 40, 36, 47, 44, 39, 40, 46, 36, 48, 50, 38, 31, 44, 35, 38, 45, 47, 35, 43, 30, 48, 31, 37, 38, 47, 42], [31, 39, 36, 47, 36, 38, 31, 34, 30, 34, 46, 46, 31, 34, 39, 38, 43, 48, 30, 31, 38, 32, 41, 48, 42, 44, 39, 35, 41, 46, 43, 46, 35, 44, 33, 47, 30, 32, 33, 49, 50, 45, 41, 35, 45, 32, 49, 37, 32, 46], [39, 38, 36, 35, 45, 37, 43, 32, 36, 35, 44, 38, 47, 33, 32, 50, 45, 48, 46, 44, 42, 41, 30, 31, 37, 50, 34, 31, 36, 47, 31, 38, 44, 32, 42, 42, 30, 35, 46, 43, 50, 48, 36, 45, 32, 41, 45, 42, 49, 34], [43, 37, 46, 42, 36, 44, 37, 46, 45, 31, 40, 50, 44, 36, 37, 46, 37, 49, 38, 33, 30, 30, 41, 45, 47, 33, 47, 50, 30, 41, 38, 45, 42, 48, 46, 37, 42, 44, 43, 32, 49, 41, 30, 37, 49, 38, 45, 37, 44, 40], [40, 47, 37, 42, 48, 30, 36, 35, 49, 38, 33, 35, 35, 31, 47, 50, 45, 38, 37, 35, 33, 44, 46, 38, 38, 36, 43, 35, 32, 47, 50, 43, 30, 46, 50, 39, 40, 34, 41, 31, 44, 37, 36, 45, 33, 44, 36, 32, 33, 48], [36, 34, 43, 43, 40, 31, 33, 39, 37, 44, 35, 37, 40, 42, 38, 36, 34, 43, 34, 41, 47, 47, 46, 50, 39, 34, 32, 33, 35, 40, 31, 40, 31, 37, 40, 31, 33, 50, 36, 46, 36, 30, 38, 31, 44, 33, 49, 30, 37, 44]], [[0, 0, 0, 0, 0, 0, 0, 0, 0, 0, 0, 0, 0, 0, 0, 0, 0, 0, 0, 0, 0, 0, 0, 0, 0, 0, 0, 0, 0, 0, 0, 0, 0, 0, 0, 0, 0, 0, 0, 0, 0, 0, 0, 0, 0, 0, 0, 0, 0, 0], [0, 0, 0, 0, 0, 0, 0, 0, 0, 0, 0, 0, 0, 0, 0, 0, 0, 0, 0, 0, 0, 0, 0, 0, 0, 0, 0, 0, 0, 0, 0, 0, 0, 0, 0, 0, 0, 0, 0, 0, 0, 0, 0, 0, 0, 0, 0, 0, 0, 0], [0, 0, 0, 0, 0, 0, 0, 0, 0, 0, 0, 0, 0, 0, 0, 0, 0, 0, 0, 0, 0, 0, 0, 0, 0, 0, 0, 0, 0, 0, 0, 0, 0, 0, 0, 0, 0, 0, 0, 0, 0, 0, 0, 0, 0, 0, 0, 0, 0, 0], [31, 36, 39, 48, 41, 46, 49, 42, 31, 40, 49, 45, 33, 45, 39, 39, 37, 40, 37, 30, 43, 50, 44, 39, 32, 33, 49, 36, 43, 40, 32, 43, 38, 49, 46, 50, 44, 35, 40, 47, 50, 41, 35, 38, 40, 33, 31, 46, 42, 37], [46, 39, 48, 38, 37, 31, 44, 42, 40, 43, 33, 30, 50, 46, 37, 31, 41, 40, 48, 45, 33, 34, 32, 43, 36, 44, 37, 39, 39, 30, 50, 34, 45, 32, 36, 45, 35, 30, 33, 34, 33, 50, 43, 31, 31, 38, 50, 46, 44, 39], [46, 49, 39, 42, 41, 48, 50, 48, 34, 47, 44, 47, 36, 49, 37, 41, 46, 42, 41, 47, 49, 32, 45, 36, 46, 49, 34, 40, 34, 47, 44, 38, 41, 44, 31, 47, 45, 30, 41, 35, 31, 50, 32, 32, 42, 42, 33, 32, 35, 30], [50, 33, 42, 34, 31, 33, 32, 32, 41, 34, 30, 37, 47, 37, 37, 37, 34, 49, 45, 35, 44, 43, 36, 48, 50, 49, 30, 43, 31, 49, 44, 36, 39, 34, 46, 39, 44, 37, 44, 46, 50, 41, 50, 30, 47, 38, 49, 47, 41, 36], [44, 48, 34, 47, 41, 33, 43, 40, 48, 39, 41, 37, 35, 44, 31, 43, 35, 36, 35, 40, 31, 35, 32, 33, 43, 50, 40, 43, 35, 43, 31, 33, 36, 34, 42, 41, 38, 42, 38, 35, 37, 32, 43, 33, 42, 37, 43, 30, 36, 48], [40, 44, 36, 46, 42, 43, 46, 50, 32, 40, 33, 31, 37, 32, 37, 34, 37, 32, 37, 35, 40, 42, 46, 49, 49, 49, 38, 44, 35, 34, 34, 36, 41, 39, 47, 38, 46, 48, 36, 48, 36, 30, 42, 35, 40, 36, 45, 49, 40, 38], [50, 40, 39, 35, 46, 50, 30, 41, 42, 47, 40, 44, 34, 41, 44, 41, 37, 36, 38, 45, 30, 31, 37, 37, 44, 30, 43, 48, 47, 36, 47, 30, 40, 50, 30, 49, 44, 33, 50, 36, 48, 37, 47, 38, 39, 35, 35, 50, 39, 44]], [[0, 0, 0, 0, 0, 0, 0, 0, 0, 0, 0, 0, 0, 0, 0, 0, 0, 0, 0, 0, 0, 0, 0, 0, 0, 0, 0, 0, 0, 0, 0, 0, 0, 0, 0, 0, 0, 0, 0, 0, 0, 0, 0, 0, 0, 0, 0, 0, 0, 0], [0, 0, 0, 0, 0, 0, 0, 0, 0, 0, 0, 0, 0, 0, 0, 0, 0, 0, 0, 0, 0, 0, 0, 0, 0, 0, 0, 0, 0, 0, 0, 0, 0, 0, 0, 0, 0, 0, 0, 0, 0, 0, 0, 0, 0, 0, 0, 0, 0, 0], [0, 0, 0, 0, 0, 0, 0, 0, 0, 0, 0, 0, 0, 0, 0, 0, 0, 0, 0, 0, 0, 0, 0, 0, 0, 0, 0, 0, 0, 0, 0, 0, 0, 0, 0, 0, 0, 0, 0, 0, 0, 0, 0, 0, 0, 0, 0, 0, 0, 0], [0, 0, 0, 0, 0, 0, 0, 0, 0, 0, 0, 0, 0, 0, 0, 0, 0, 0, 0, 0, 0, 0, 0, 0, 0, 0, 0, 0, 0, 0, 0, 0, 0, 0, 0, 0, 0, 0, 0, 0, 0, 0, 0, 0, 0, 0, 0, 0, 0, 0], [31, 50, 31, 37, 34, 39, 47, 36, 50, 34, 32, 50, 45, 45, 41, 34, 40, 49, 45, 33, 48, 50, 36, 31, 39, 35, 48, 40, 39, 50, 47, 36, 39, 44, 39, 46, 43, 45, 31, 35, 42, 34, 31, 49, 32, 32, 39, 46, 44, 37], [45, 40, 44, 44, 35, 34, 44, 32, 48, 32, 33, 37, 32, 42, 46, 44, 40, 50, 47, 34, 48, 41, 46, 35, 32, 35, 42, 33, 32, 32, 32, 38, 48, 48, 34, 41, 43, 46, 46, 39, 39, 33, 42, 32, 30, 40, 39, 33, 37, 49], [33, 30, 40, 32, 39, 49, 47, 44, 49, 38, 47, 36, 37, 48, 38, 35, 33, 37, 30, 38, 45, 48, 36, 36, 50, 36, 47, 38, 49, 42, 35, 44, 46, 41, 46, 30, 50, 41, 32, 37, 35, 47, 47, 42, 48, 33, 31, 36, 36, 48], [34, 32, 31, 37, 33, 41, 35, 45, 32, 32, 31, 50, 44, 31, 39, 36, 31, 32, 38, 30, 46, 45, 49, 31, 48, 35, 43, 50, 41, 41, 42, 36, 33, 39, 42, 47, 43, 43, 47, 47, 31, 33, 31, 45, 39, 31, 43, 31, 32, 43], [35, 37, 31, 39, 45, 36, 39, 36, 39, 39, 47, 45, 38, 33, 44, 49, 41, 47, 33, 40, 47, 46, 45, 48, 42, 30, 31, 45, 44, 33, 38, 39, 44, 47, 43, 39, 49, 44, 30, 48, 43, 34, 42, 36, 30, 35, 36, 46, 42, 49], [46, 43, 38, 36, 35, 34, 48, 42, 47, 48, 47, 32, 42, 33, 30, 43, 46, 50, 34, 37, 43, 38, 33, 36, 40, 32, 41, 30, 35, 48, 30, 31, 38, 39, 35, 31, 48, 38, 38, 40, 30, 50, 43, 45, 45, 36, 33, 44, 50, 33]], [[0, 0, 0, 0, 0, 0, 0, 0, 0, 0, 0, 0, 0, 0, 0, 0, 0, 0, 0, 0, 0, 0, 0, 0, 0, 0, 0, 0, 0, 0, 0, 0, 0, 0, 0, 0, 0, 0, 0, 0, 0, 0, 0, 0, 0, 0, 0, 0, 0, 0], [0, 0, 0, 0, 0, 0, 0, 0, 0, 0, 0, 0, 0, 0, 0, 0, 0, 0, 0, 0, 0, 0, 0, 0, 0, 0, 0, 0, 0, 0, 0, 0, 0, 0, 0, 0, 0, 0, 0, 0, 0, 0, 0, 0, 0, 0, 0, 0, 0, 0], [0, 0, 0, 0, 0, 0, 0, 0, 0, 0, 0, 0, 0, 0, 0, 0, 0, 0, 0, 0, 0, 0, 0, 0, 0, 0, 0, 0, 0, 0, 0, 0, 0, 0, 0, 0, 0, 0, 0, 0, 0, 0, 0, 0, 0, 0, 0, 0, 0, 0], [0, 0, 0, 0, 0, 0, 0, 0, 0, 0, 0, 0, 0, 0, 0, 0, 0, 0, 0, 0, 0, 0, 0, 0, 0, 0, 0, 0, 0, 0, 0, 0, 0, 0, 0, 0, 0, 0, 0, 0, 0, 0, 0, 0, 0, 0, 0, 0, 0, 0], [0, 0, 0, 0, 0, 0, 0, 0, 0, 0, 0, 0, 0, 0, 0, 0, 0, 0, 0, 0, 0, 0, 0, 0, 0, 0, 0, 0, 0, 0, 0, 0, 0, 0, 0, 0, 0, 0, 0, 0, 0, 0, 0, 0, 0, 0, 0, 0, 0, 0], [31, 43, 46, 41, 48, 39, 31, 34, 38, 38, 39, 49, 36, 37, 50, 34, 30, 42, 34, 44, 47, 44, 50, 36, 48, 48, 37, 41, 43, 47, 36, 36, 46, 42, 50, 41, 32, 49, 43, 36, 47, 37, 42, 48, 40, 49, 44, 35, 40, 35], [39, 34, 39, 42, 38, 39, 44, 44, 48, 41, 41, 35, 48, 48, 41, 32, 35, 39, 30, 47, 31, 47, 32, 42, 33, 47, 46, 42, 33, 47, 32, 43, 37, 45, 38, 31, 42, 42, 35, 34, 42, 47, 38, 43, 35, 34, 40, 30, 42, 42], [34, 41, 47, 38, 39, 34, 31, 42, 32, 48, 42, 34, 42, 49, 43, 41, 32, 47, 39, 38, 41, 40, 40, 38, 37, 36, 39, 33, 37, 30, 31, 48, 32, 30, 31, 40, 44, 38, 34, 40, 47, 41, 34, 34, 33, 30, 31, 42, 49, 49], [41, 38, 37, 45, 46, 46, 31, 37, 30, 45, 35, 34, 43, 37, 45, 42, 38, 42, 44, 34, 31, 41, 38, 31, 48, 40, 39, 30, 40, 43, 33, 41, 48, 37, 32, 45, 32, 46, 45, 49, 31, 40, 39, 47, 43, 43, 42, 35, 46, 45], [45, 40, 30, 46, 48, 36, 37, 43, 35, 44, 41, 47, 33, 41, 39, 49, 49, 46, 41, 44, 47, 43, 30, 48, 44, 33, 39, 40, 35, 38, 45, 33, 43, 50, 38, 31, 50, 46, 32, 34, 47, 42, 37, 49, 31, 37, 47, 30, 48, 36]], [[0, 0, 0, 0, 0, 0, 0, 0, 0, 0, 0, 0, 0, 0, 0, 0, 0, 0, 0, 0, 0, 0, 0, 0, 0, 0, 0, 0, 0, 0, 0, 0, 0, 0, 0, 0, 0, 0, 0, 0, 0, 0, 0, 0, 0, 0, 0, 0, 0, 0], [0, 0, 0, 0, 0, 0, 0, 0, 0, 0, 0, 0, 0, 0, 0, 0, 0, 0, 0, 0, 0, 0, 0, 0, 0, 0, 0, 0, 0, 0, 0, 0, 0, 0, 0, 0, 0, 0, 0, 0, 0, 0, 0, 0, 0, 0, 0, 0, 0, 0], [0, 0, 0, 0, 0, 0, 0, 0, 0, 0, 0, 0, 0, 0, 0, 0, 0, 0, 0, 0, 0, 0, 0, 0, 0, 0, 0, 0, 0, 0, 0, 0, 0, 0, 0, 0, 0, 0, 0, 0, 0, 0, 0, 0, 0, 0, 0, 0, 0, 0], [0, 0, 0, 0, 0, 0, 0, 0, 0, 0, 0, 0, 0, 0, 0, 0, 0, 0, 0, 0, 0, 0, 0, 0, 0, 0, 0, 0, 0, 0, 0, 0, 0, 0, 0, 0, 0, 0, 0, 0, 0, 0, 0, 0, 0, 0, 0, 0, 0, 0], [0, 0, 0, 0, 0, 0, 0, 0, 0, 0, 0, 0, 0, 0, 0, 0, 0, 0, 0, 0, 0, 0, 0, 0, 0, 0, 0, 0, 0, 0, 0, 0, 0, 0, 0, 0, 0, 0, 0, 0, 0, 0, 0, 0, 0, 0, 0, 0, 0, 0], [0, 0, 0, 0, 0, 0, 0, 0, 0, 0, 0, 0, 0, 0, 0, 0, 0, 0, 0, 0, 0, 0, 0, 0, 0, 0, 0, 0, 0, 0, 0, 0, 0, 0, 0, 0, 0, 0, 0, 0, 0, 0, 0, 0, 0, 0, 0, 0, 0, 0], [45, 43, 33, 46, 41, 38, 32, 48, 42, 33, 35, 36, 31, 43, 40, 39, 32, 33, 48, 44, 39, 40, 50, 47, 36, 45, 38, 50, 35, 38, 31, 32, 40, 30, 37, 34, 33, 48, 36, 41, 31, 47, 31, 37, 46, 41, 43, 39, 38, 30], [50, 36, 46, 35, 36, 31, 48, 47, 45, 32, 36, 45, 34, 41, 36, 47, 40, 44, 43, 37, 36, 37, 47, 38, 45, 40, 50, 35, 40, 38, 34, 39, 33, 45, 31, 46, 33, 38, 36, 45, 42, 32, 45, 40, 43, 46, 30, 43, 46, 37], [50, 44, 37, 38, 32, 32, 48, 35, 35, 38, 31, 46, 32, 42, 47, 46, 34, 39, 38, 50, 47, 38, 48, 34, 49, 39, 30, 49, 32, 34, 32, 30, 42, 37, 44, 31, 41, 30, 40, 30, 48, 50, 30, 30, 42, 31, 31, 50, 42, 36], [34, 35, 49, 45, 49, 33, 33, 47, 30, 32, 31, 35, 48, 34, 44, 41, 35, 49, 46, 41, 37, 44, 35, 46, 32, 31, 39, 42, 39, 31, 31, 30, 42, 33, 35, 32, 37, 45, 30, 33, 48, 35, 34, 36, 41, 44, 46, 49, 43, 49]], [[0, 0, 0, 0, 0, 0, 0, 0, 0, 0, 0, 0, 0, 0, 0, 0, 0, 0, 0, 0, 0, 0, 0, 0, 0, 0, 0, 0, 0, 0, 0, 0, 0, 0, 0, 0, 0, 0, 0, 0, 0, 0, 0, 0, 0, 0, 0, 0, 0, 0], [0, 0, 0, 0, 0, 0, 0, 0, 0, 0, 0, 0, 0, 0, 0, 0, 0, 0, 0, 0, 0, 0, 0, 0, 0, 0, 0, 0, 0, 0, 0, 0, 0, 0, 0, 0, 0, 0, 0, 0, 0, 0, 0, 0, 0, 0, 0, 0, 0, 0], [0, 0, 0, 0, 0, 0, 0, 0, 0, 0, 0, 0, 0, 0, 0, 0, 0, 0, 0, 0, 0, 0, 0, 0, 0, 0, 0, 0, 0, 0, 0, 0, 0, 0, 0, 0, 0, 0, 0, 0, 0, 0, 0, 0, 0, 0, 0, 0, 0, 0], [0, 0, 0, 0, 0, 0, 0, 0, 0, 0, 0, 0, 0, 0, 0, 0, 0, 0, 0, 0, 0, 0, 0, 0, 0, 0, 0, 0, 0, 0, 0, 0, 0, 0, 0, 0, 0, 0, 0, 0, 0, 0, 0, 0, 0, 0, 0, 0, 0, 0], [0, 0, 0, 0, 0, 0, 0, 0, 0, 0, 0, 0, 0, 0, 0, 0, 0, 0, 0, 0, 0, 0, 0, 0, 0, 0, 0, 0, 0, 0, 0, 0, 0, 0, 0, 0, 0, 0, 0, 0, 0, 0, 0, 0, 0, 0, 0, 0, 0, 0], [0, 0, 0, 0, 0, 0, 0, 0, 0, 0, 0, 0, 0, 0, 0, 0, 0, 0, 0, 0, 0, 0, 0, 0, 0, 0, 0, 0, 0, 0, 0, 0, 0, 0, 0, 0, 0, 0, 0, 0, 0, 0, 0, 0, 0, 0, 0, 0, 0, 0], [0, 0, 0, 0, 0, 0, 0, 0, 0, 0, 0, 0, 0, 0, 0, 0, 0, 0, 0, 0, 0, 0, 0, 0, 0, 0, 0, 0, 0, 0, 0, 0, 0, 0, 0, 0, 0, 0, 0, 0, 0, 0, 0, 0, 0, 0, 0, 0, 0, 0], [39, 42, 41, 36, 39, 34, 47, 31, 49, 45, 36, 38, 40, 48, 44, 46, 43, 36, 35, 43, 44, 45, 49, 50, 45, 37, 32, 42, 44, 44, 36, 38, 35, 39, 40, 44, 40, 39, 32, 42, 36, 31, 39, 34, 43, 41, 33, 30, 47, 37], [30, 32, 39, 40, 38, 32, 39, 41, 44, 50, 46, 44, 47, 47, 48, 40, 49, 41, 35, 35, 36, 37, 36, 47, 46, 40, 37, 37, 45, 50, 30, 31, 41, 47, 30, 40, 35, 36, 39, 36, 46, 38, 33, 33, 38, 41, 42, 38, 34, 49], [48, 49, 35, 46, 39, 30, 45, 30, 42, 37, 37, 39, 47, 34, 38, 38, 45, 36, 30, 39, 45, 45, 41, 35, 37, 31, 42, 42, 33, 38, 38, 42, 41, 31, 48, 34, 47, 32, 37, 33, 33, 41, 46, 44, 33, 38, 37, 38, 40, 35]], [[0, 0, 0, 0, 0, 0, 0, 0, 0, 0, 0, 0, 0, 0, 0, 0, 0, 0, 0, 0, 0, 0, 0, 0, 0, 0, 0, 0, 0, 0, 0, 0, 0, 0, 0, 0, 0, 0, 0, 0, 0, 0, 0, 0, 0, 0, 0, 0, 0, 0], [0, 0, 0, 0, 0, 0, 0, 0, 0, 0, 0, 0, 0, 0, 0, 0, 0, 0, 0, 0, 0, 0, 0, 0, 0, 0, 0, 0, 0, 0, 0, 0, 0, 0, 0, 0, 0, 0, 0, 0, 0, 0, 0, 0, 0, 0, 0, 0, 0, 0], [0, 0, 0, 0, 0, 0, 0, 0, 0, 0, 0, 0, 0, 0, 0, 0, 0, 0, 0, 0, 0, 0, 0, 0, 0, 0, 0, 0, 0, 0, 0, 0, 0, 0, 0, 0, 0, 0, 0, 0, 0, 0, 0, 0, 0, 0, 0, 0, 0, 0], [0, 0, 0, 0, 0, 0, 0, 0, 0, 0, 0, 0, 0, 0, 0, 0, 0, 0, 0, 0, 0, 0, 0, 0, 0, 0, 0, 0, 0, 0, 0, 0, 0, 0, 0, 0, 0, 0, 0, 0, 0, 0, 0, 0, 0, 0, 0, 0, 0, 0], [0, 0, 0, 0, 0, 0, 0, 0, 0, 0, 0, 0, 0, 0, 0, 0, 0, 0, 0, 0, 0, 0, 0, 0, 0, 0, 0, 0, 0, 0, 0, 0, 0, 0, 0, 0, 0, 0, 0, 0, 0, 0, 0, 0, 0, 0, 0, 0, 0, 0], [0, 0, 0, 0, 0, 0, 0, 0, 0, 0, 0, 0, 0, 0, 0, 0, 0, 0, 0, 0, 0, 0, 0, 0, 0, 0, 0, 0, 0, 0, 0, 0, 0, 0, 0, 0, 0, 0, 0, 0, 0, 0, 0, 0, 0, 0, 0, 0, 0, 0], [0, 0, 0, 0, 0, 0, 0, 0, 0, 0, 0, 0, 0, 0, 0, 0, 0, 0, 0, 0, 0, 0, 0, 0, 0, 0, 0, 0, 0, 0, 0, 0, 0, 0, 0, 0, 0, 0, 0, 0, 0, 0, 0, 0, 0, 0, 0, 0, 0, 0], [0, 0, 0, 0, 0, 0, 0, 0, 0, 0, 0, 0, 0, 0, 0, 0, 0, 0, 0, 0, 0, 0, 0, 0, 0, 0, 0, 0, 0, 0, 0, 0, 0, 0, 0, 0, 0, 0, 0, 0, 0, 0, 0, 0, 0, 0, 0, 0, 0, 0], [30, 35, 45, 44, 47, 42, 39, 43, 39, 42, 50, 38, 37, 50, 41, 42, 46, 42, 43, 41, 45, 47, 31, 48, 45, 44, 50, 33, 36, 30, 31, 30, 40, 35, 31, 50, 50, 37, 35, 43, 42, 39, 38, 50, 41, 44, 31, 37, 46, 36], [35, 37, 42, 50, 41, 37, 49, 50, 36, 45, 35, 40, 48, 35, 32, 40, 31, 40, 49, 35, 32, 39, 41, 44, 46, 47, 48, 30, 41, 46, 45, 43, 37, 40, 46, 46, 49, 32, 47, 47, 36, 40, 46, 50, 31, 40, 35, 49, 43, 32]], [[0, 0, 0, 0, 0, 0, 0, 0, 0, 0, 0, 0, 0, 0, 0, 0, 0, 0, 0, 0, 0, 0, 0, 0, 0, 0, 0, 0, 0, 0, 0, 0, 0, 0, 0, 0, 0, 0, 0, 0, 0, 0, 0, 0, 0, 0, 0, 0, 0, 0], [0, 0, 0, 0, 0, 0, 0, 0, 0, 0, 0, 0, 0, 0, 0, 0, 0, 0, 0, 0, 0, 0, 0, 0, 0, 0, 0, 0, 0, 0, 0, 0, 0, 0, 0, 0, 0, 0, 0, 0, 0, 0, 0, 0, 0, 0, 0, 0, 0, 0], [0, 0, 0, 0, 0, 0, 0, 0, 0, 0, 0, 0, 0, 0, 0, 0, 0, 0, 0, 0, 0, 0, 0, 0, 0, 0, 0, 0, 0, 0, 0, 0, 0, 0, 0, 0, 0, 0, 0, 0, 0, 0, 0, 0, 0, 0, 0, 0, 0, 0], [0, 0, 0, 0, 0, 0, 0, 0, 0, 0, 0, 0, 0, 0, 0, 0, 0, 0, 0, 0, 0, 0, 0, 0, 0, 0, 0, 0, 0, 0, 0, 0, 0, 0, 0, 0, 0, 0, 0, 0, 0, 0, 0, 0, 0, 0, 0, 0, 0, 0], [0, 0, 0, 0, 0, 0, 0, 0, 0, 0, 0, 0, 0, 0, 0, 0, 0, 0, 0, 0, 0, 0, 0, 0, 0, 0, 0, 0, 0, 0, 0, 0, 0, 0, 0, 0, 0, 0, 0, 0, 0, 0, 0, 0, 0, 0, 0, 0, 0, 0], [0, 0, 0, 0, 0, 0, 0, 0, 0, 0, 0, 0, 0, 0, 0, 0, 0, 0, 0, 0, 0, 0, 0, 0, 0, 0, 0, 0, 0, 0, 0, 0, 0, 0, 0, 0, 0, 0, 0, 0, 0, 0, 0, 0, 0, 0, 0, 0, 0, 0], [0, 0, 0, 0, 0, 0, 0, 0, 0, 0, 0, 0, 0, 0, 0, 0, 0, 0, 0, 0, 0, 0, 0, 0, 0, 0, 0, 0, 0, 0, 0, 0, 0, 0, 0, 0, 0, 0, 0, 0, 0, 0, 0, 0, 0, 0, 0, 0, 0, 0], [0, 0, 0, 0, 0, 0, 0, 0, 0, 0, 0, 0, 0, 0, 0, 0, 0, 0, 0, 0, 0, 0, 0, 0, 0, 0, 0, 0, 0, 0, 0, 0, 0, 0, 0, 0, 0, 0, 0, 0, 0, 0, 0, 0, 0, 0, 0, 0, 0, 0], [0, 0, 0, 0, 0, 0, 0, 0, 0, 0, 0, 0, 0, 0, 0, 0, 0, 0, 0, 0, 0, 0, 0, 0, 0, 0, 0, 0, 0, 0, 0, 0, 0, 0, 0, 0, 0, 0, 0, 0, 0, 0, 0, 0, 0, 0, 0, 0, 0, 0], [47, 50, 44, 48, 47, 35, 37, 35, 43, 48, 42, 42, 48, 49, 41, 40, 35, 41, 32, 38, 38, 32, 45, 30, 35, 30, 40, 46, 46, 31, 34, 33, 45, 36, 44, 50, 39, 32, 37, 32, 47, 41, 45, 43, 39, 37, 33, 39, 39, 50]], [[0, 0, 0, 0, 0, 0, 0, 0, 0, 0, 0, 0, 0, 0, 0, 0, 0, 0, 0, 0, 0, 0, 0, 0, 0, 0, 0, 0, 0, 0, 0, 0, 0, 0, 0, 0, 0, 0, 0, 0, 0, 0, 0, 0, 0, 0, 0, 0, 0, 0], [0, 0, 0, 0, 0, 0, 0, 0, 0, 0, 0, 0, 0, 0, 0, 0, 0, 0, 0, 0, 0, 0, 0, 0, 0, 0, 0, 0, 0, 0, 0, 0, 0, 0, 0, 0, 0, 0, 0, 0, 0, 0, 0, 0, 0, 0, 0, 0, 0, 0], [0, 0, 0, 0, 0, 0, 0, 0, 0, 0, 0, 0, 0, 0, 0, 0, 0, 0, 0, 0, 0, 0, 0, 0, 0, 0, 0, 0, 0, 0, 0, 0, 0, 0, 0, 0, 0, 0, 0, 0, 0, 0, 0, 0, 0, 0, 0, 0, 0, 0], [0, 0, 0, 0, 0, 0, 0, 0, 0, 0, 0, 0, 0, 0, 0, 0, 0, 0, 0, 0, 0, 0, 0, 0, 0, 0, 0, 0, 0, 0, 0, 0, 0, 0, 0, 0, 0, 0, 0, 0, 0, 0, 0, 0, 0, 0, 0, 0, 0, 0], [0, 0, 0, 0, 0, 0, 0, 0, 0, 0, 0, 0, 0, 0, 0, 0, 0, 0, 0, 0, 0, 0, 0, 0, 0, 0, 0, 0, 0, 0, 0, 0, 0, 0, 0, 0, 0, 0, 0, 0, 0, 0, 0, 0, 0, 0, 0, 0, 0, 0], [0, 0, 0, 0, 0, 0, 0, 0, 0, 0, 0, 0, 0, 0, 0, 0, 0, 0, 0, 0, 0, 0, 0, 0, 0, 0, 0, 0, 0, 0, 0, 0, 0, 0, 0, 0, 0, 0, 0, 0, 0, 0, 0, 0, 0, 0, 0, 0, 0, 0], [0, 0, 0, 0, 0, 0, 0, 0, 0, 0, 0, 0, 0, 0, 0, 0, 0, 0, 0, 0, 0, 0, 0, 0, 0, 0, 0, 0, 0, 0, 0, 0, 0, 0, 0, 0, 0, 0, 0, 0, 0, 0, 0, 0, 0, 0, 0, 0, 0, 0], [0, 0, 0, 0, 0, 0, 0, 0, 0, 0, 0, 0, 0, 0, 0, 0, 0, 0, 0, 0, 0, 0, 0, 0, 0, 0, 0, 0, 0, 0, 0, 0, 0, 0, 0, 0, 0, 0, 0, 0, 0, 0, 0, 0, 0, 0, 0, 0, 0, 0], [0, 0, 0, 0, 0, 0, 0, 0, 0, 0, 0, 0, 0, 0, 0, 0, 0, 0, 0, 0, 0, 0, 0, 0, 0, 0, 0, 0, 0, 0, 0, 0, 0, 0, 0, 0, 0, 0, 0, 0, 0, 0, 0, 0, 0, 0, 0, 0, 0, 0], [0, 0, 0, 0, 0, 0, 0, 0, 0, 0, 0, 0, 0, 0, 0, 0, 0, 0, 0, 0, 0, 0, 0, 0, 0, 0, 0, 0, 0, 0, 0, 0, 0, 0, 0, 0, 0, 0, 0, 0, 0, 0, 0, 0, 0, 0, 0, 0, 0, 0]]];

q = [[[11, 106], [7, 111], [14, 117], [25, 116], [13, 122], [19, 108], [7, 120], [19, 125], [7, 123], [18, 117], [11, 119], [14, 105], [15, 106], [15, 111], [5, 121], [6, 120], [5, 113], [17, 120], [8, 115], [16, 114], [12, 123], [25, 125], [19, 109], [20, 112], [10, 111], [23, 112], [6, 105], [6, 123], [24, 123], [16, 117], [7, 117], [21, 111], [17, 125], [14, 108], [13, 107], [11, 109], [25, 107], [6, 105], [24, 122], [17, 107], [14, 124], [19, 107], [22, 114], [13, 120], [7, 108], [18, 125], [14, 109], [21, 125], [14, 122], [8, 123]], [[20, 111], [10, 112], [24, 120], [17, 120], [18, 119], [12, 108], [20, 124], [22, 124], [8, 109], [9, 121], [8, 109], [16, 118], [12, 110], [6, 117], [12, 117], [22, 107], [8, 118], [22, 116], [11, 120], [10, 124], [13, 118], [9, 115], [9, 114], [17, 109], [11, 112], [9, 125], [15, 115], [21, 124], [24, 110], [17, 107], [10, 108], [10, 109], [18, 108], [20, 107], [15, 112], [12, 107], [20, 107], [14, 118], [25, 120], [21, 115], [22, 114], [23, 111], [6, 125], [19, 125], [15, 125], [20, 117], [25, 110], [15, 105], [10, 112], [11, 120]], [[22, 105], [8, 118], [19, 121], [10, 119], [6, 107], [12, 108], [8, 121], [19, 120], [13, 111], [13, 111], [18, 118], [5, 111], [24, 115], [22, 111], [13, 111], [18, 115], [19, 116], [13, 106], [23, 119], [23, 106], [23, 124], [15, 111], [16, 107], [23, 118], [9, 121], [10, 117], [15, 106], [22, 124], [20, 122], [16, 121], [23, 117], [22, 105], [19, 114], [25, 111], [5, 110], [16, 106], [20, 110], [14, 117], [13, 105], [12, 121], [18, 123], [19, 122], [21, 122], [20, 110], [6, 110], [9, 112], [23, 111], [14, 109], [25, 106], [17, 111]], [[15, 118], [13, 105], [13, 118], [8, 123], [8, 117], [18, 112], [20, 125], [25, 117], [22, 111], [18, 111], [22, 118], [16, 105], [11, 117], [23, 105], [13, 106], [16, 114], [18, 117], [8, 117], [10, 124], [16, 105], [19, 110], [9, 107], [8, 121], [7, 118], [23, 109], [20, 123], [18, 113], [13, 122], [21, 123], [11, 125], [25, 111], [10, 107], [10, 106], [6, 109], [7, 110], [18, 115], [6, 119], [12, 107], [22, 121], [20, 105], [18, 124], [22, 115], [8, 116], [5, 123], [19, 120], [23, 124], [24, 112], [10, 117], [17, 105], [24, 115]], [[17, 123], [19, 117], [13, 124], [10, 107], [10, 117], [17, 122], [8, 121], [11, 112], [22, 112], [13, 112], [19, 123], [18, 120], [22, 113], [12, 108], [9, 113], [20, 120], [20, 109], [15, 113], [9, 123], [19, 122], [6, 117], [23, 121], [13, 114], [5, 113], [11, 117], [8, 121], [23, 112], [5, 122], [7, 118], [20, 111], [24, 108], [5, 121], [19, 122], [15, 125], [8, 115], [15, 125], [7, 124], [19, 124], [16, 120], [17, 124], [9, 118], [11, 106], [18, 107], [12, 111], [21, 111], [10, 122], [21, 110], [23, 119], [21, 121], [12, 111]], [[19, 119], [22, 120], [23, 118], [24, 119], [18, 121], [17, 113], [16, 121], [21, 115], [8, 115], [17, 123], [9, 123], [5, 106], [9, 105], [8, 112], [22, 125], [9, 113], [10, 112], [14, 123], [5, 105], [10, 114], [25, 119], [5, 121], [8, 120], [22, 109], [22, 105], [17, 114], [8, 123], [5, 115], [18, 111], [7, 124], [24, 105], [13, 118], [22, 106], [19, 107], [5, 112], [24, 124], [19, 110], [5, 122], [23, 109], [9, 124], [9, 106], [23, 108], [22, 117], [8, 113], [24, 112], [18, 118], [21, 118], [18, 122], [18, 107], [11, 109]], [[23, 117], [7, 117], [20, 109], [15, 111], [6, 123], [9, 117], [16, 117], [7, 107], [5, 124], [25, 112], [7, 118], [16, 109], [10, 115], [18, 124], [13, 123], [6, 123], [14, 122], [19, 122], [17, 106], [18, 123], [15, 105], [8, 119], [22, 120], [20, 115], [10, 107], [8, 112], [5, 105], [10, 115], [14, 114], [17, 116], [11, 120], [11, 114], [14, 118], [18, 108], [6, 108], [12, 121], [8, 119], [24, 114], [13, 110], [19, 125], [12, 118], [7, 117], [13, 112], [8, 107], [7, 113], [21, 125], [6, 114], [15, 117], [7, 118], [20, 106]], [[8, 105], [6, 125], [11, 111], [15, 108], [21, 106], [18, 114], [18, 113], [11, 121], [16, 110], [15, 123], [25, 123], [7, 114], [14, 109], [22, 111], [8, 110], [23, 119], [23, 108], [6, 120], [19, 117], [17, 124], [22, 108], [21, 124], [11, 119], [11, 110], [7, 109], [16, 115], [8, 109], [22, 120], [11, 118], [19, 123], [13, 109], [7, 122], [7, 113], [8, 124], [9, 107], [5, 108], [6, 108], [14, 117], [16, 124], [22, 113], [24, 117], [16, 125], [10, 114], [20, 116], [8, 112], [11, 115], [6, 116], [16, 123], [8, 114], [11, 115]], [[21, 111], [16, 114], [18, 113], [12, 124], [9, 121], [22, 107], [6, 113], [6, 110], [20, 105], [9, 120], [7, 112], [10, 114], [19, 118], [17, 118], [24, 108], [6, 120], [8, 122], [10, 122], [14, 105], [17, 123], [20, 118], [12, 113], [7, 121], [15, 116], [13, 115], [11, 109], [22, 124], [6, 108], [6, 111], [23, 114], [15, 117], [8, 124], [18, 121], [8, 117], [15, 113], [22, 107], [19, 116], [24, 121], [15, 105], [22, 106], [14, 123], [21, 112], [7, 108], [21, 105], [23, 107], [16, 118], [25, 110], [8, 117], [25, 110], [19, 113]], [[6, 123], [7, 107], [7, 120], [13, 114], [6, 125], [7, 114], [7, 111], [8, 115], [19, 120], [15, 111], [18, 118], [25, 113], [14, 108], [24, 121], [11, 109], [15, 111], [9, 119], [8, 112], [16, 111], [6, 113], [16, 110], [6, 113], [8, 113], [17, 118], [13, 123], [7, 118], [14, 121], [17, 124], [16, 109], [13, 114], [11, 111], [20, 120], [12, 117], [6, 121], [18, 115], [6, 107], [19, 125], [9, 124], [23, 117], [5, 106], [21, 117], [23, 111], [25, 123], [14, 121], [19, 112], [16, 122], [20, 124], [20, 111], [18, 113], [18, 122]]];
Q = [[69, 462], [66, 460], [68, 456], [68, 459], [69, 468], [57, 460], [61, 462], [65, 461], [61, 458], [58, 464]];
